proyfinal/src/viki/013/andrea/andrea-localstore/experimentInOfficeAgust.take6/worker_4/5af22499-9f76-41b7-bc3e-4498febcb502.als.cnf.out
Reading from standard input... Use '--help' for help.
============================[ Problem Statistics ]=============================
|                                                                             |
|  Number of variables:         87638                                         |
|  Number of clauses:          161767                                         |
|  Parse time:                   0.03 s                                       |
|                                                                             |
============================[ Search Statistics ]==============================
| Conflicts |          ORIGINAL         |          LEARNT          | Progress |
|           |    Vars  Clauses Literals |    Limit  Clauses Lit/Cl |          |
===============================================================================
|       100 |   63803   110362   275623 |    40466      100     35 | 27.197 % |
|       250 |   55088    84381   211585 |    44512      246     75 | 37.141 % |
|       475 |   55076    84323   211445 |    48963      469     47 | 37.155 % |
|       812 |   55073    84294   211387 |    53860      805     42 | 37.159 % |
|      1318 |   54622    83894   210466 |    59246     1263     42 | 37.673 % |
|      2077 |   54474    82193   206233 |    65171     1995     50 | 37.842 % |
|      3216 |   54262    81635   204888 |    71688     3128     49 | 38.084 % |
|      4924 |   54228    81110   203685 |    78856     4824     53 | 38.123 % |
|      7486 |   53979    80446   202000 |    86742     7373     54 | 38.407 % |
|     11330 |   53839    79542   199886 |    95416    11184     53 | 38.567 % |
|     17096 |   53600    78612   197729 |   104958    15828     52 | 38.839 % |
===============================================================================
restarts              : 74
conflicts             : 20882          (8113 /sec)
decisions             : 75411          (0.00 % random) (29299 /sec)
propagations          : 28006337       (10881086 /sec)
conflict literals     : 1184311        (43.97 % deleted)
Memory used           : 31.82 MB
CPU time              : 2.57386 s

INDETERMINATE
